node 0 w: 6.16, h: 12.95
node 1 w: 4.9, h: 12.95
node 2 w: 8.2026-06-21 14:51:10 - INFO - Set parameter WLSAccessID
2026-06-21 14:51:10 - INFO - Set parameter WLSSecret
2026-06-21 14:51:10 - INFO - Set parameter LicenseID to value 2756663
2026-06-21 14:51:10 - INFO - Academic license 2756663 - for non-commercial use only - registered to hu___@sjtu.edu.cn
2026-06-21 14:51:10 - INFO - Set parameter TimeLimit to value 300
2026-06-21 14:51:10 - INFO - Set parameter MIPGap to value 0
2026-06-21 14:51:10 - INFO - Set parameter MIPFocus to value 3
2026-06-21 14:51:10 - INFO - Set parameter Heuristics to value 0.5
2026-06-21 14:51:10 - INFO - Set parameter LogToConsole to value 1
2026-06-21 14:51:10 - INFO - Gurobi Optimizer version 13.0.1 build v13.0.1rc0 (linux64 - "Ubuntu 20.04.6 LTS")
2026-06-21 14:51:10 - INFO - 
2026-06-21 14:51:10 - INFO - CPU model: AMD Ryzen 9 9950X3D 16-Core Processor, instruction set [SSE2|AVX|AVX2|AVX512]
2026-06-21 14:51:10 - INFO - Thread count: 14 physical cores, 28 logical processors, using up to 28 threads
2026-06-21 14:51:10 - INFO - 
2026-06-21 14:51:10 - INFO - Non-default parameters:
2026-06-21 14:51:10 - INFO - TimeLimit  300
2026-06-21 14:51:10 - INFO - MIPGap  0
2026-06-21 14:51:10 - INFO - Heuristics  0.5
2026-06-21 14:51:10 - INFO - MIPFocus  3
2026-06-21 14:51:10 - INFO - 
2026-06-21 14:51:10 - INFO - Academic license 2756663 - for non-commercial use only - registered to hu___@sjtu.edu.cn
2026-06-21 14:51:10 - INFO - Optimize a model with 836 rows, 389 columns and 2833 nonzeros (Min)
2026-06-21 14:51:10 - INFO - Model fingerprint: 0x2d56a75b
2026-06-21 14:51:10 - INFO - Model has 4 linear objective coefficients
2026-06-21 14:51:10 - INFO - Variable types: 165 continuous, 224 integer (224 binary)
2026-06-21 14:51:10 - INFO - Coefficient statistics:
2026-06-21 14:51:10 - INFO -   Matrix range     [3e-01, 8e+03]
2026-06-21 14:51:10 - INFO -   Objective range  [2e-05, 1e-01]
2026-06-21 14:51:10 - INFO -   Bounds range     [9e-01, 8e+06]
2026-06-21 14:51:10 - INFO -   RHS range        [9e-01, 2e+02]
2026-06-21 14:51:10 - INFO - 
2026-06-21 14:51:10 - INFO - Presolve removed 86 rows and 74 columns
2026-06-21 14:51:10 - INFO - Presolve time: 0.01s
2026-06-21 14:51:10 - INFO - Presolved: 750 rows, 315 columns, 2666 nonzeros
2026-06-21 14:51:10 - INFO - Variable types: 107 continuous, 208 integer (208 binary)
2026-06-21 14:51:10 - INFO - Root relaxation presolve removed 42 rows and 10 columns
2026-06-21 14:51:10 - INFO - Root relaxation presolved: 708 rows, 317 columns, 2576 nonzeros
2026-06-21 14:51:10 - INFO - 
2026-06-21 14:51:10 - INFO - 
2026-06-21 14:51:10 - INFO - Root relaxation: objective -2.897861e+01, 177 iterations, 0.00 seconds (0.01 work units)
2026-06-21 14:51:10 - INFO - 
2026-06-21 14:51:10 - INFO -     Nodes    |    Current Node    |     Objective Bounds      |     Work
2026-06-21 14:51:10 - INFO -  Expl Unexpl |  Obj  Depth IntInf | Incumbent    BestBd   Gap | It/Node Time
2026-06-21 14:51:10 - INFO - 
2026-06-21 14:51:10 - INFO -      0     0  -28.97861    0   84          -  -28.97861      -     -    0s
2026-06-21 14:51:10 - INFO -      0     0   -2.96052    0   97          -   -2.96052      -     -    0s
2026-06-21 14:51:10 - INFO -      0     0   -2.96052    0   79          -   -2.96052      -     -    0s
2026-06-21 14:51:10 - INFO -      0     0    2.06515    0   81          -    2.06515      -     -    0s
2026-06-21 14:51:10 - INFO -      0     0    2.06515    0   83          -    2.06515      -     -    0s
2026-06-21 14:51:10 - INFO -      0     0    2.06515    0   75          -    2.06515      -     -    0s
2026-06-21 14:51:10 - INFO -      0     0    3.40494    0   76          -    3.40494      -     -    0s
2026-06-21 14:51:10 - INFO -      0     0    3.40604    0   79          -    3.40604      -     -    0s
2026-06-21 14:51:10 - INFO -      0     0    3.71058    0  104          -    3.71058      -     -    0s
2026-06-21 14:51:10 - INFO -      0     0    3.71058    0  103          -    3.71058      -     -    0s
2026-06-21 14:51:10 - INFO -      0     0    3.71058    0   72          -    3.71058      -     -    0s
2026-06-21 14:51:10 - INFO -      0     0    4.09704    0   69          -    4.09704      -     -    0s
2026-06-21 14:51:10 - INFO -      0     0    4.09704    0   72          -    4.09704      -     -    0s
2026-06-21 14:51:10 - INFO -      0     0    4.25766    0   89          -    4.25766      -     -    0s
2026-06-21 14:51:10 - INFO -      0     0    4.25766    0   89          -    4.25766      -     -    0s
2026-06-21 14:51:10 - INFO -      0     0    4.25766    0   89          -    4.25766      -     -    0s
2026-06-21 14:51:10 - INFO -      0     0    4.47220    0   89          -    4.47220      -     -    0s
2026-06-21 14:51:10 - INFO -      0     0    4.47220    0   87          -    4.47220      -     -    0s
2026-06-21 14:51:11 - INFO -      0     2    4.47220    0   87          -    4.47220      -     -    1s
2026-06-21 14:51:14 - INFO - 
2026-06-21 14:51:14 - INFO - Cutting planes:
2026-06-21 14:51:14 - INFO -   Learned: 2
2026-06-21 14:51:14 - INFO -   Gomory: 66
2026-06-21 14:51:14 - INFO -   Lift-and-project: 42
2026-06-21 14:51:14 - INFO -   Implied bound: 1
2026-06-21 14:51:14 - INFO -   MIR: 21
2026-06-21 14:51:14 - INFO -   Mixing: 1
2026-06-21 14:51:14 - INFO -   Flow cover: 204
2026-06-21 14:51:14 - INFO -   Inf proof: 9
2026-06-21 14:51:14 - INFO -   RLT: 1
2026-06-21 14:51:14 - INFO - 
2026-06-21 14:51:14 - INFO - Explored 9773 nodes (288696 simplex iterations) in 4.60 seconds (7.07 work units)
2026-06-21 14:51:14 - INFO - Thread count was 28 (of 28 available processors)
2026-06-21 14:51:14 - INFO - 
2026-06-21 14:51:14 - INFO - Solution count 0
2026-06-21 14:51:14 - INFO - 
2026-06-21 14:51:14 - INFO - Model is infeasible or unbounded
2026-06-21 14:51:14 - INFO - Best objective -, best bound -, gap -
2026-06-21 14:51:14 - INFO - Set parameter TimeLimit to value 300
2026-06-21 14:51:14 - INFO - Set parameter MIPGap to value 0.3
2026-06-21 14:51:14 - INFO - Set parameter MIPFocus to value 3
2026-06-21 14:51:14 - INFO - Set parameter Heuristics to value 0.5
2026-06-21 14:51:14 - INFO - Set parameter LogToConsole to value 1
2026-06-21 14:51:14 - INFO - Gurobi Optimizer version 13.0.1 build v13.0.1rc0 (linux64 - "Ubuntu 20.04.6 LTS")
2026-06-21 14:51:14 - INFO - 
2026-06-21 14:51:14 - INFO - CPU model: AMD Ryzen 9 9950X3D 16-Core Processor, instruction set [SSE2|AVX|AVX2|AVX512]
2026-06-21 14:51:14 - INFO - Thread count: 14 physical cores, 28 logical processors, using up to 28 threads
2026-06-21 14:51:14 - INFO - 
2026-06-21 14:51:14 - INFO - Non-default parameters:
2026-06-21 14:51:14 - INFO - TimeLimit  300
2026-06-21 14:51:14 - INFO - MIPGap  0.3
2026-06-21 14:51:14 - INFO - Heuristics  0.5
2026-06-21 14:51:14 - INFO - MIPFocus  3
2026-06-21 14:51:14 - INFO - 
2026-06-21 14:51:14 - INFO - Academic license 2756663 - for non-commercial use only - registered to hu___@sjtu.edu.cn
2026-06-21 14:51:14 - INFO - Optimize a model with 836 rows, 389 columns and 2833 nonzeros (Min)
2026-06-21 14:51:14 - INFO - Model fingerprint: 0x2d56a75b
2026-06-21 14:51:14 - INFO - Model has 4 linear objective coefficients
2026-06-21 14:51:14 - INFO - Variable types: 165 continuous, 224 integer (224 binary)
2026-06-21 14:51:14 - INFO - Coefficient statistics:
2026-06-21 14:51:14 - INFO -   Matrix range     [3e-01, 8e+03]
2026-06-21 14:51:14 - INFO -   Objective range  [2e-05, 1e-01]
2026-06-21 14:51:14 - INFO -   Bounds range     [9e-01, 8e+06]
2026-06-21 14:51:14 - INFO -   RHS range        [9e-01, 2e+02]
2026-06-21 14:51:14 - INFO - 
2026-06-21 14:51:14 - INFO - Presolved: 750 rows, 315 columns, 2666 nonzeros
2026-06-21 14:51:14 - INFO - 
2026-06-21 14:51:14 - INFO - Continuing optimization...
2026-06-21 14:51:14 - INFO - 
2026-06-21 14:51:14 - INFO - 
2026-06-21 14:51:14 - INFO - Cutting planes:
2026-06-21 14:51:14 - INFO -   Learned: 2
2026-06-21 14:51:14 - INFO -   Gomory: 66
2026-06-21 14:51:14 - INFO -   Lift-and-project: 42
2026-06-21 14:51:14 - INFO -   Implied bound: 1
2026-06-21 14:51:14 - INFO -   MIR: 21
2026-06-21 14:51:14 - INFO -   Mixing: 1
2026-06-21 14:51:14 - INFO -   Flow cover: 204
2026-06-21 14:51:14 - INFO -   Inf proof: 9
2026-06-21 14:51:14 - INFO -   RLT: 1
2026-06-21 14:51:14 - INFO - 
2026-06-21 14:51:14 - INFO - Explored 9773 nodes (288696 simplex iterations) in 4.61 seconds (7.07 work units)
2026-06-21 14:51:14 - INFO - Most recent optimization runtime was 0.00 seconds (0.00 work units)
2026-06-21 14:51:14 - INFO - Thread count was 28 (of 28 available processors)
2026-06-21 14:51:14 - INFO - 
2026-06-21 14:51:14 - INFO - Solution count 0
2026-06-21 14:51:14 - INFO - 
2026-06-21 14:51:14 - INFO - Model is infeasible or unbounded
2026-06-21 14:51:14 - INFO - Best objective -, best bound -, gap -
2026-06-21 14:51:14 - INFO - Set parameter TimeLimit to value 3600
2026-06-21 14:51:14 - INFO - Set parameter MIPGap to value 0.8
2026-06-21 14:51:14 - INFO - Set parameter MIPFocus to value 3
2026-06-21 14:51:14 - INFO - Set parameter Heuristics to value 0.5
2026-06-21 14:51:14 - INFO - Set parameter LogToConsole to value 1
2026-06-21 14:51:14 - INFO - Gurobi Optimizer version 13.0.1 build v13.0.1rc0 (linux64 - "Ubuntu 20.04.6 LTS")
2026-06-21 14:51:14 - INFO - 
2026-06-21 14:51:14 - INFO - CPU model: AMD Ryzen 9 9950X3D 16-Core Processor, instruction set [SSE2|AVX|AVX2|AVX512]
2026-06-21 14:51:14 - INFO - Thread count: 14 physical cores, 28 logical processors, using up to 28 threads
2026-06-21 14:51:14 - INFO - 
2026-06-21 14:51:14 - INFO - Non-default parameters:
2026-06-21 14:51:14 - INFO - TimeLimit  3600
2026-06-21 14:51:14 - INFO - MIPGap  0.8
2026-06-21 14:51:14 - INFO - Heuristics  0.5
2026-06-21 14:51:14 - INFO - MIPFocus  3
2026-06-21 14:51:14 - INFO - 
2026-06-21 14:51:14 - INFO - Academic license 2756663 - for non-commercial use only - registered to hu___@sjtu.edu.cn
2026-06-21 14:51:14 - INFO - Optimize a model with 836 rows, 389 columns and 2833 nonzeros (Min)
2026-06-21 14:51:14 - INFO - Model fingerprint: 0x2d56a75b
2026-06-21 14:51:14 - INFO - Model has 4 linear objective coefficients
2026-06-21 14:51:14 - INFO - Variable types: 165 continuous, 224 integer (224 binary)
2026-06-21 14:51:14 - INFO - Coefficient statistics:
2026-06-21 14:51:14 - INFO -   Matrix range     [3e-01, 8e+03]
2026-06-21 14:51:14 - INFO -   Objective range  [2e-05, 1e-01]
2026-06-21 14:51:14 - INFO -   Bounds range     [9e-01, 8e+06]
2026-06-21 14:51:14 - INFO -   RHS range        [9e-01, 2e+02]
2026-06-21 14:51:14 - INFO - 
2026-06-21 14:51:14 - INFO - Presolved: 750 rows, 315 columns, 2666 nonzeros
2026-06-21 14:51:14 - INFO - 
2026-06-21 14:51:14 - INFO - Continuing optimization...
2026-06-21 14:51:14 - INFO - 
2026-06-21 14:51:14 - INFO - 
2026-06-21 14:51:14 - INFO - Cutting planes:
2026-06-21 14:51:14 - INFO -   Learned: 2
2026-06-21 14:51:14 - INFO -   Gomory: 66
2026-06-21 14:51:14 - INFO -   Lift-and-project: 42
2026-06-21 14:51:14 - INFO -   Implied bound: 1
2026-06-21 14:51:14 - INFO -   MIR: 21
2026-06-21 14:51:14 - INFO -   Mixing: 1
2026-06-21 14:51:14 - INFO -   Flow cover: 204
2026-06-21 14:51:14 - INFO -   Inf proof: 9
2026-06-21 14:51:14 - INFO -   RLT: 1
2026-06-21 14:51:14 - INFO - 
2026-06-21 14:51:14 - INFO - Explored 9773 nodes (288696 simplex iterations) in 4.61 seconds (7.07 work units)
2026-06-21 14:51:14 - INFO - Most recent optimization runtime was 0.00 seconds (0.00 work units)
2026-06-21 14:51:14 - INFO - Thread count was 28 (of 28 available processors)
2026-06-21 14:51:14 - INFO - 
2026-06-21 14:51:14 - INFO - Solution count 0
2026-06-21 14:51:14 - INFO - 
2026-06-21 14:51:14 - INFO - Model is infeasible or unbounded
2026-06-21 14:51:14 - INFO - Best objective -, best bound -, gap -
2026-06-21 14:51:14 - INFO - 
EMIB returned 0 solution(s) (max 1).
ws, 389 columns and 2833 nonzeros (Min)
Model fingerprint: 0x2d56a75b
Model has 4 linear objective coefficients
Variable types: 165 continuous, 224 integer (224 binary)
Coefficient statistics:
  Matrix range     [3e-01, 8e+03]
  Objective range  [2e-05, 1e-01]
  Bounds range     [9e-01, 8e+06]
  RHS range        [9e-01, 2e+02]

Presolved: 750 rows, 315 columns, 2666 nonzeros

Continuing optimization...


Cutting planes:
  Learned: 2
  Gomory: 66
  Lift-and-project: 42
  Implied bound: 1
  MIR: 21
  Mixing: 1
  Flow cover: 204
  Inf proof: 9
  RLT: 1

Explored 9773 nodes (288696 simplex iterations) in 4.61 seconds (7.07 work units)
Most recent optimization runtime was 0.00 seconds (0.00 work units)
Thread count was 28 (of 28 available processors)

Solution count 0

Model is infeasible or unbounded
Best objective -, best bound -, gap -
[EMIB] No feasible solution: MIPGap=0.3, status=4, time=0.00s, SolCount=0
[EMIB] Phase 2 no feasible solution, switching to phase 3 MIPGap=0.8.
Set parameter TimeLimit to value 3600
Set parameter MIPGap to value 0.8
Set parameter MIPFocus to value 3
Set parameter Heuristics to value 0.5
Set parameter LogToConsole to value 1
Gurobi Optimizer version 13.0.1 build v13.0.1rc0 (linux64 - "Ubuntu 20.04.6 LTS")

CPU model: AMD Ryzen 9 9950X3D 16-Core Processor, instruction set [SSE2|AVX|AVX2|AVX512]
Thread count: 14 physical cores, 28 logical processors, using up to 28 threads

Non-default parameters:
TimeLimit  3600
MIPGap  0.8
Heuristics  0.5
MIPFocus  3

Academic license 2756663 - for non-commercial use only - registered to hu___@sjtu.edu.cn
Optimize a model with 836 rows, 389 columns and 2833 nonzeros (Min)
Model fingerprint: 0x2d56a75b
Model has 4 linear objective coefficients
Variable types: 165 continuous, 224 integer (224 binary)
Coefficient statistics:
  Matrix range     [3e-01, 8e+03]
  Objective range  [2e-05, 1e-01]
  Bounds range     [9e-01, 8e+06]
  RHS range        [9e-01, 2e+02]

Presolved: 750 rows, 315 columns, 2666 nonzeros

Continuing optimization...


Cutting planes:
  Learned: 2
  Gomory: 66
  Lift-and-project: 42
  Implied bound: 1
  MIR: 21
  Mixing: 1
  Flow cover: 204
  Inf proof: 9
  RLT: 1

Explored 9773 nodes (288696 simplex iterations) in 4.61 seconds (7.07 work units)
Most recent optimization runtime was 0.00 seconds (0.00 work units)
Thread count was 28 (of 28 available processors)

Solution count 0

Model is infeasible or unbounded
Best objective -, best bound -, gap -
[EMIB] No feasible solution: MIPGap=0.8, status=4, time=0.00s, SolCount=0
[EMIB] Search failed, no feasible solution
  ✓ EMIB: 0 solution(s)
